p cnf 12 50 
-6 -4 8 0
-10 -12 6 0
7 -8 1 0
-5 4 1 0
-8 7 6 0
10 5 3 0
-5 -8 4 0
-1 -6 -8 0
-2 -8 5 0
-2 10 -9 0
3 12 2 0
9 4 7 0
12 -4 -1 0
-3 4 -12 0
-9 -3 11 0
3 4 -1 0
11 10 -3 0
-9 -5 3 0
1 -3 -8 0
-2 -7 5 0
10 -1 -3 0
-10 1 7 0
-7 -8 -9 0
-6 -11 -8 0
-9 -7 -5 0
6 -8 4 0
-12 8 11 0
12 -8 -1 0
-3 8 -5 0
-8 1 11 0
12 2 3 0
-7 -11 10 0
10 -12 3 0
-8 5 6 0
10 -4 1 0
9 1 -8 0
5 1 -4 0
-5 6 2 0
-8 -9 -4 0
-12 -8 -4 0
-9 4 -1 0
4 -9 -7 0
-12 -10 8 0
6 9 3 0
7 -2 3 0
-11 2 10 0
12 -2 3 0
-9 -4 -7 0
10 1 -3 0
-7 -2 -9 0
